(set-logic QF_LIA)
(declare-const tour (Array Int Int))
(declare-const cost Int)

; Tour is a permutation of cities 1 to 22
(assert (and (>= (select tour 1) 1) (<= (select tour 1) 22)))
(assert (and (>= (select tour 2) 1) (<= (select tour 2) 22)))
(assert (and (>= (select tour 3) 1) (<= (select tour 3) 22)))
(assert (and (>= (select tour 4) 1) (<= (select tour 4) 22)))
(assert (and (>= (select tour 5) 1) (<= (select tour 5) 22)))
(assert (and (>= (select tour 6) 1) (<= (select tour 6) 22)))
(assert (and (>= (select tour 7) 1) (<= (select tour 7) 22)))
(assert (and (>= (select tour 8) 1) (<= (select tour 8) 22)))
(assert (and (>= (select tour 9) 1) (<= (select tour 9) 22)))
(assert (and (>= (select tour 10) 1) (<= (select tour 10) 22)))
(assert (and (>= (select tour 11) 1) (<= (select tour 11) 22)))
(assert (and (>= (select tour 12) 1) (<= (select tour 12) 22)))
(assert (and (>= (select tour 13) 1) (<= (select tour 13) 22)))
(assert (and (>= (select tour 14) 1) (<= (select tour 14) 22)))
(assert (and (>= (select tour 15) 1) (<= (select tour 15) 22)))
(assert (and (>= (select tour 16) 1) (<= (select tour 16) 22)))
(assert (and (>= (select tour 17) 1) (<= (select tour 17) 22)))
(assert (and (>= (select tour 18) 1) (<= (select tour 18) 22)))
(assert (and (>= (select tour 19) 1) (<= (select tour 19) 22)))
(assert (and (>= (select tour 20) 1) (<= (select tour 20) 22)))
(assert (and (>= (select tour 21) 1) (<= (select tour 21) 22)))
(assert (and (>= (select tour 22) 1) (<= (select tour 22) 22)))
(assert (not (= (select tour 1) (select tour 2))))
(assert (not (= (select tour 1) (select tour 3))))
(assert (not (= (select tour 1) (select tour 4))))
(assert (not (= (select tour 1) (select tour 5))))
(assert (not (= (select tour 1) (select tour 6))))
(assert (not (= (select tour 1) (select tour 7))))
(assert (not (= (select tour 1) (select tour 8))))
(assert (not (= (select tour 1) (select tour 9))))
(assert (not (= (select tour 1) (select tour 10))))
(assert (not (= (select tour 1) (select tour 11))))
(assert (not (= (select tour 1) (select tour 12))))
(assert (not (= (select tour 1) (select tour 13))))
(assert (not (= (select tour 1) (select tour 14))))
(assert (not (= (select tour 1) (select tour 15))))
(assert (not (= (select tour 1) (select tour 16))))
(assert (not (= (select tour 1) (select tour 17))))
(assert (not (= (select tour 1) (select tour 18))))
(assert (not (= (select tour 1) (select tour 19))))
(assert (not (= (select tour 1) (select tour 20))))
(assert (not (= (select tour 1) (select tour 21))))
(assert (not (= (select tour 1) (select tour 22))))
(assert (not (= (select tour 2) (select tour 3))))
(assert (not (= (select tour 2) (select tour 4))))
(assert (not (= (select tour 2) (select tour 5))))
(assert (not (= (select tour 2) (select tour 6))))
(assert (not (= (select tour 2) (select tour 7))))
(assert (not (= (select tour 2) (select tour 8))))
(assert (not (= (select tour 2) (select tour 9))))
(assert (not (= (select tour 2) (select tour 10))))
(assert (not (= (select tour 2) (select tour 11))))
(assert (not (= (select tour 2) (select tour 12))))
(assert (not (= (select tour 2) (select tour 13))))
(assert (not (= (select tour 2) (select tour 14))))
(assert (not (= (select tour 2) (select tour 15))))
(assert (not (= (select tour 2) (select tour 16))))
(assert (not (= (select tour 2) (select tour 17))))
(assert (not (= (select tour 2) (select tour 18))))
(assert (not (= (select tour 2) (select tour 19))))
(assert (not (= (select tour 2) (select tour 20))))
(assert (not (= (select tour 2) (select tour 21))))
(assert (not (= (select tour 2) (select tour 22))))
(assert (not (= (select tour 3) (select tour 4))))
(assert (not (= (select tour 3) (select tour 5))))
(assert (not (= (select tour 3) (select tour 6))))
(assert (not (= (select tour 3) (select tour 7))))
(assert (not (= (select tour 3) (select tour 8))))
(assert (not (= (select tour 3) (select tour 9))))
(assert (not (= (select tour 3) (select tour 10))))
(assert (not (= (select tour 3) (select tour 11))))
(assert (not (= (select tour 3) (select tour 12))))
(assert (not (= (select tour 3) (select tour 13))))
(assert (not (= (select tour 3) (select tour 14))))
(assert (not (= (select tour 3) (select tour 15))))
(assert (not (= (select tour 3) (select tour 16))))
(assert (not (= (select tour 3) (select tour 17))))
(assert (not (= (select tour 3) (select tour 18))))
(assert (not (= (select tour 3) (select tour 19))))
(assert (not (= (select tour 3) (select tour 20))))
(assert (not (= (select tour 3) (select tour 21))))
(assert (not (= (select tour 3) (select tour 22))))
(assert (not (= (select tour 4) (select tour 5))))
(assert (not (= (select tour 4) (select tour 6))))
(assert (not (= (select tour 4) (select tour 7))))
(assert (not (= (select tour 4) (select tour 8))))
(assert (not (= (select tour 4) (select tour 9))))
(assert (not (= (select tour 4) (select tour 10))))
(assert (not (= (select tour 4) (select tour 11))))
(assert (not (= (select tour 4) (select tour 12))))
(assert (not (= (select tour 4) (select tour 13))))
(assert (not (= (select tour 4) (select tour 14))))
(assert (not (= (select tour 4) (select tour 15))))
(assert (not (= (select tour 4) (select tour 16))))
(assert (not (= (select tour 4) (select tour 17))))
(assert (not (= (select tour 4) (select tour 18))))
(assert (not (= (select tour 4) (select tour 19))))
(assert (not (= (select tour 4) (select tour 20))))
(assert (not (= (select tour 4) (select tour 21))))
(assert (not (= (select tour 4) (select tour 22))))
(assert (not (= (select tour 5) (select tour 6))))
(assert (not (= (select tour 5) (select tour 7))))
(assert (not (= (select tour 5) (select tour 8))))
(assert (not (= (select tour 5) (select tour 9))))
(assert (not (= (select tour 5) (select tour 10))))
(assert (not (= (select tour 5) (select tour 11))))
(assert (not (= (select tour 5) (select tour 12))))
(assert (not (= (select tour 5) (select tour 13))))
(assert (not (= (select tour 5) (select tour 14))))
(assert (not (= (select tour 5) (select tour 15))))
(assert (not (= (select tour 5) (select tour 16))))
(assert (not (= (select tour 5) (select tour 17))))
(assert (not (= (select tour 5) (select tour 18))))
(assert (not (= (select tour 5) (select tour 19))))
(assert (not (= (select tour 5) (select tour 20))))
(assert (not (= (select tour 5) (select tour 21))))
(assert (not (= (select tour 5) (select tour 22))))
(assert (not (= (select tour 6) (select tour 7))))
(assert (not (= (select tour 6) (select tour 8))))
(assert (not (= (select tour 6) (select tour 9))))
(assert (not (= (select tour 6) (select tour 10))))
(assert (not (= (select tour 6) (select tour 11))))
(assert (not (= (select tour 6) (select tour 12))))
(assert (not (= (select tour 6) (select tour 13))))
(assert (not (= (select tour 6) (select tour 14))))
(assert (not (= (select tour 6) (select tour 15))))
(assert (not (= (select tour 6) (select tour 16))))
(assert (not (= (select tour 6) (select tour 17))))
(assert (not (= (select tour 6) (select tour 18))))
(assert (not (= (select tour 6) (select tour 19))))
(assert (not (= (select tour 6) (select tour 20))))
(assert (not (= (select tour 6) (select tour 21))))
(assert (not (= (select tour 6) (select tour 22))))
(assert (not (= (select tour 7) (select tour 8))))
(assert (not (= (select tour 7) (select tour 9))))
(assert (not (= (select tour 7) (select tour 10))))
(assert (not (= (select tour 7) (select tour 11))))
(assert (not (= (select tour 7) (select tour 12))))
(assert (not (= (select tour 7) (select tour 13))))
(assert (not (= (select tour 7) (select tour 14))))
(assert (not (= (select tour 7) (select tour 15))))
(assert (not (= (select tour 7) (select tour 16))))
(assert (not (= (select tour 7) (select tour 17))))
(assert (not (= (select tour 7) (select tour 18))))
(assert (not (= (select tour 7) (select tour 19))))
(assert (not (= (select tour 7) (select tour 20))))
(assert (not (= (select tour 7) (select tour 21))))
(assert (not (= (select tour 7) (select tour 22))))
(assert (not (= (select tour 8) (select tour 9))))
(assert (not (= (select tour 8) (select tour 10))))
(assert (not (= (select tour 8) (select tour 11))))
(assert (not (= (select tour 8) (select tour 12))))
(assert (not (= (select tour 8) (select tour 13))))
(assert (not (= (select tour 8) (select tour 14))))
(assert (not (= (select tour 8) (select tour 15))))
(assert (not (= (select tour 8) (select tour 16))))
(assert (not (= (select tour 8) (select tour 17))))
(assert (not (= (select tour 8) (select tour 18))))
(assert (not (= (select tour 8) (select tour 19))))
(assert (not (= (select tour 8) (select tour 20))))
(assert (not (= (select tour 8) (select tour 21))))
(assert (not (= (select tour 8) (select tour 22))))
(assert (not (= (select tour 9) (select tour 10))))
(assert (not (= (select tour 9) (select tour 11))))
(assert (not (= (select tour 9) (select tour 12))))
(assert (not (= (select tour 9) (select tour 13))))
(assert (not (= (select tour 9) (select tour 14))))
(assert (not (= (select tour 9) (select tour 15))))
(assert (not (= (select tour 9) (select tour 16))))
(assert (not (= (select tour 9) (select tour 17))))
(assert (not (= (select tour 9) (select tour 18))))
(assert (not (= (select tour 9) (select tour 19))))
(assert (not (= (select tour 9) (select tour 20))))
(assert (not (= (select tour 9) (select tour 21))))
(assert (not (= (select tour 9) (select tour 22))))
(assert (not (= (select tour 10) (select tour 11))))
(assert (not (= (select tour 10) (select tour 12))))
(assert (not (= (select tour 10) (select tour 13))))
(assert (not (= (select tour 10) (select tour 14))))
(assert (not (= (select tour 10) (select tour 15))))
(assert (not (= (select tour 10) (select tour 16))))
(assert (not (= (select tour 10) (select tour 17))))
(assert (not (= (select tour 10) (select tour 18))))
(assert (not (= (select tour 10) (select tour 19))))
(assert (not (= (select tour 10) (select tour 20))))
(assert (not (= (select tour 10) (select tour 21))))
(assert (not (= (select tour 10) (select tour 22))))
(assert (not (= (select tour 11) (select tour 12))))
(assert (not (= (select tour 11) (select tour 13))))
(assert (not (= (select tour 11) (select tour 14))))
(assert (not (= (select tour 11) (select tour 15))))
(assert (not (= (select tour 11) (select tour 16))))
(assert (not (= (select tour 11) (select tour 17))))
(assert (not (= (select tour 11) (select tour 18))))
(assert (not (= (select tour 11) (select tour 19))))
(assert (not (= (select tour 11) (select tour 20))))
(assert (not (= (select tour 11) (select tour 21))))
(assert (not (= (select tour 11) (select tour 22))))
(assert (not (= (select tour 12) (select tour 13))))
(assert (not (= (select tour 12) (select tour 14))))
(assert (not (= (select tour 12) (select tour 15))))
(assert (not (= (select tour 12) (select tour 16))))
(assert (not (= (select tour 12) (select tour 17))))
(assert (not (= (select tour 12) (select tour 18))))
(assert (not (= (select tour 12) (select tour 19))))
(assert (not (= (select tour 12) (select tour 20))))
(assert (not (= (select tour 12) (select tour 21))))
(assert (not (= (select tour 12) (select tour 22))))
(assert (not (= (select tour 13) (select tour 14))))
(assert (not (= (select tour 13) (select tour 15))))
(assert (not (= (select tour 13) (select tour 16))))
(assert (not (= (select tour 13) (select tour 17))))
(assert (not (= (select tour 13) (select tour 18))))
(assert (not (= (select tour 13) (select tour 19))))
(assert (not (= (select tour 13) (select tour 20))))
(assert (not (= (select tour 13) (select tour 21))))
(assert (not (= (select tour 13) (select tour 22))))
(assert (not (= (select tour 14) (select tour 15))))
(assert (not (= (select tour 14) (select tour 16))))
(assert (not (= (select tour 14) (select tour 17))))
(assert (not (= (select tour 14) (select tour 18))))
(assert (not (= (select tour 14) (select tour 19))))
(assert (not (= (select tour 14) (select tour 20))))
(assert (not (= (select tour 14) (select tour 21))))
(assert (not (= (select tour 14) (select tour 22))))
(assert (not (= (select tour 15) (select tour 16))))
(assert (not (= (select tour 15) (select tour 17))))
(assert (not (= (select tour 15) (select tour 18))))
(assert (not (= (select tour 15) (select tour 19))))
(assert (not (= (select tour 15) (select tour 20))))
(assert (not (= (select tour 15) (select tour 21))))
(assert (not (= (select tour 15) (select tour 22))))
(assert (not (= (select tour 16) (select tour 17))))
(assert (not (= (select tour 16) (select tour 18))))
(assert (not (= (select tour 16) (select tour 19))))
(assert (not (= (select tour 16) (select tour 20))))
(assert (not (= (select tour 16) (select tour 21))))
(assert (not (= (select tour 16) (select tour 22))))
(assert (not (= (select tour 17) (select tour 18))))
(assert (not (= (select tour 17) (select tour 19))))
(assert (not (= (select tour 17) (select tour 20))))
(assert (not (= (select tour 17) (select tour 21))))
(assert (not (= (select tour 17) (select tour 22))))
(assert (not (= (select tour 18) (select tour 19))))
(assert (not (= (select tour 18) (select tour 20))))
(assert (not (= (select tour 18) (select tour 21))))
(assert (not (= (select tour 18) (select tour 22))))
(assert (not (= (select tour 19) (select tour 20))))
(assert (not (= (select tour 19) (select tour 21))))
(assert (not (= (select tour 19) (select tour 22))))
(assert (not (= (select tour 20) (select tour 21))))
(assert (not (= (select tour 20) (select tour 22))))
(assert (not (= (select tour 21) (select tour 22))))
(assert (>= cost 0))
